32      1       
23      
0       0       3       2       3       4       
8       10      3       5       7       11      
3       0       1       24      
2       0       2       8       9       
3       6       2       6       13      
9       6       2       23      30      
5       0       2       16      31      
10      0       3       11      14      15      
1       0       3       10      18      20      
4       6       1       12      
8       7       1       24      
2       0       2       17      22      
10      8       1       21      
8       3       1       22      
3       10      1       28      
2       0       1       19      
10      1       1       27      
5       0       1       29      
4       6       2       21      29      
10      0       1       22      
9       0       1       26      
2       2       1       31      
10      0       2       25      27      
10      0       2       25      27      
7       0       1       28      
4       0       1       30      
7       0       2       28      29      
10      7       1       31      
5       5       1       32      
6       5       1       32      
4       7       1       32      
0       0       0       